GaN                                     
    1.000000000000000     
     9.6000003814999992    0.0000000000000000    0.0000000000000000
     0.0000000000000000   11.0851259231999997    0.0000000000000000
     0.0000000000000000    0.0000000000000000   10.3800001143999996
   Ga   N    C 
    48    47     1
Selective dynamics
Direct
  0.9999999979680041  0.1666963670530706  0.0009299554238424   T   T   T
  0.0000000166184364  0.1675411074456150  0.5001877740408744   T   T   T
  0.0000000021083721  0.6660092046332409  0.0011470811572920   T   T   T
  0.0000000181023623  0.6664342597461967  0.5001577559178685   T   T   T
  0.3333305545110363  0.1665275120678515  0.0010039278677070   T   T   T
  0.3330846452133827  0.1657702974605968  0.5001385643008902   T   T   T
  0.3335893590201664  0.6664369658316218  0.9988893483421180   T   T   T
  0.3348284183041628  0.6658794217157364  0.5000480910221086   T   T   T
  0.6666694427483932  0.1665275063854921  0.0010040034366909   T   T   T
  0.6669153365064702  0.1657702880292504  0.5001386632821081   T   T   T
  0.6664106353955432  0.6664369723295209  0.9988894737101575   T   T   T
  0.6651715637517057  0.6658793989703256  0.5000482721949027   T   T   T
  0.9999999981515089  0.3342128318485322  0.2514051888097626   T   T   T
  0.0000000081069658  0.3341729282758905  0.7499120410714397   T   T   T
  0.9999999979078567  0.8332942049104943  0.2509571066890643   T   T   T
  0.0000000129618627  0.8333563862324951  0.7503064051326618   T   T   T
  0.3345441184636115  0.3338580552316230  0.2511835978903179   T   T   T
  0.3333246991360923  0.3330745739945655  0.7499964139372679   T   T   T
  0.3332104455660030  0.8323404568423243  0.2511279180145181   T   T   T
  0.3330567264405460  0.8336778447686797  0.7500839915320370   T   T   T
  0.6654558752864119  0.3338580593944371  0.2511836935847001   T   T   T
  0.6666752954645787  0.3330745790022078  0.7499964998283346   T   T   T
  0.6667895501152117  0.8323404632178466  0.2511281061229909   T   T   T
  0.6669432600011334  0.8336778563807314  0.7500840774657647   T   T   T
  0.1666763087770704  0.0834527532153402  0.2511705009724565   T   T   T
  0.1664636911243633  0.0834799284214114  0.7504114973630394   T   T   T
  0.1677738179913035  0.5842869998666629  0.2511445783600621   T   T   T
  0.1665929291688002  0.5837579204410162  0.7500967005586929   T   T   T
  0.4999999969774507  0.0829711324113092  0.2511679050050759   T   T   T
  0.4999999894246727  0.0830388070903467  0.7500862601042684   T   T   T
  0.4999999942454636  0.5835087703877946  0.2518974912004737   T   T   T
  0.4999999795476668  0.5834776429131310  0.7470567769557803   T   T   T
  0.8333236879377282  0.0834527550421313  0.2511706198686170   T   T   T
  0.8335363175567565  0.0834799371541095  0.7504115739607187   T   T   T
  0.8322261833461297  0.5842869982769443  0.2511447259003816   T   T   T
  0.8334070907353919  0.5837579107671758  0.7500968059955824   T   T   T
  0.1668699877096813  0.4165391755205121  0.0010583195054892   T   T   T
  0.1677893998148079  0.4172600958725212  0.4993392643384027   T   T   T
  0.1667819805214847  0.9162563967525088  0.0010683120180417   T   T   T
  0.1662381818636831  0.9169012963613525  0.5002466780008206   T   T   T
  0.4999999934091051  0.4166135814988792  0.9988712207247659   T   T   T
  0.4999999875729060  0.4176385808547849  0.5000204530165746   T   T   T
  0.5000000039734687  0.9163485513747389  0.0010784136357032   T   T   T
  0.4999999742296595  0.9152263298234828  0.4995113769160326   T   T   T
  0.8331300147305214  0.4165391740739679  0.0010583971806000   T   T   T
  0.8322106129638271  0.4172600734925709  0.4993393572949572   T   T   T
  0.8332180117355037  0.9162563941229465  0.0010683981932473   T   T   T
  0.8337618443599553  0.9169012905222758  0.5002468130505164   T   T   T
  0.9999999843474185  0.1673195095250648  0.1893222024962355   T   T   T
  0.0000000011181029  0.1673427204976008  0.6895318790929394   T   T   T
  0.9999999825570569  0.6667239981218884  0.1891901883181077   T   T   T
  0.9999999970725995  0.6669570699594942  0.6894967938953371   T   T   T
  0.3333196799618037  0.1665560971607150  0.1892789665051424   T   T   T
  0.3331196552682911  0.1661738398594963  0.6894529665842910   T   T   T
  0.3324032462356641  0.6673698825338548  0.1856963646794085   T   T   T
  0.3317605455313313  0.6678208350771797  0.6912887265089722   T   T   T
  0.6666803298577193  0.1665561034359939  0.1892790469717198   T   T   T
  0.6668803438362048  0.1661738429861757  0.6894530652726232   T   T   T
  0.6675967675215375  0.6673699021896695  0.1856965397718326   T   T   T
  0.6682394524439559  0.6678208267903116  0.6912889526263299   T   T   T
  0.9999999983658370  0.3338975597800200  0.4395843152161234   T   T   T
  0.9999999927115155  0.3333267999308092  0.9390849905622929   T   T   T
  0.9999999941476574  0.8333949704248553  0.4393966041431270   T   T   T
  0.9999999914867672  0.8330276323783323  0.9393353156254776   T   T   T
  0.3325054177414160  0.3307208581463001  0.4393572188047443   T   T   T
  0.3326013032294171  0.3326356507359591  0.9388129107453693   T   T   T
  0.3315325027126192  0.8349676927454226  0.4393546293179043   T   T   T
  0.3333153266712827  0.8339897114247279  0.9388619901262700   T   T   T
  0.6674945814058191  0.3307208509143820  0.4393573506457855   T   T   T
  0.6673987009271372  0.3326356461661533  0.9388130245329975   T   T   T
  0.6684675022327013  0.8349676760434264  0.4393548840766428   T   T   T
  0.6666846793721888  0.8339897046735274  0.9388620704259267   T   T   T
  0.1669076972150378  0.4169263029485748  0.1893461859767953   T   T   T
  0.1667562104343006  0.4168749643434069  0.6888886622710544   T   T   T
  0.1665299766400494  0.9170016028880212  0.1892965733681038   T   T   T
  0.1661807952544336  0.9172541021372922  0.6895688820000316   T   T   T
  0.5000000064462142  0.4157094620517512  0.1857933458806755   T   T   T
  0.5000000044373891  0.4149951453816030  0.6912143285655006   T   T   T
  0.5000000209596251  0.9165018081589693  0.1893710512702782   T   T   T
  0.4999999961197972  0.9167677603623687  0.6889813689148596   T   T   T
  0.8330922889421402  0.4169263161164807  0.1893462561946677   T   T   T
  0.8332437889919788  0.4168749607029412  0.6888887401980242   T   T   T
  0.8334699963200052  0.9170016076438614  0.1892966774326936   T   T   T
  0.8338192095511872  0.9172541048484675  0.6895690177029081   T   T   T
  0.1656990409015719  0.0833578738622194  0.4394767281834007   T   T   T
  0.1664597413603985  0.0831600297072370  0.9393974459969812   T   T   T
  0.1649293393925149  0.5838029014064219  0.4392527545068177   T   T   T
  0.1660995720258285  0.5828036537725012  0.9388573339412929   T   T   T
  0.5000000029420946  0.0824729733607583  0.4395006639565793   T   T   T
  0.5000000050329092  0.0831570209110950  0.9391814594542396   T   T   T
  0.5000000077619902  0.5830924660903420  0.9370462241782178   T   T   T
  0.8343009542366389  0.0833578659387797  0.4394768881590707   T   T   T
  0.8335402500501061  0.0831600233759886  0.9393975257925078   T   T   T
  0.8350706499925167  0.5838028925384577  0.4392529533692979   T   T   T
  0.8339004161180270  0.5828036498012210  0.9388574598510360   T   T   T
  0.5000000120875399  0.5831892614513308  0.4390365003444003   T   T   T
 
  0.00000000E+00  0.00000000E+00  0.00000000E+00
  0.00000000E+00  0.00000000E+00  0.00000000E+00
  0.00000000E+00  0.00000000E+00  0.00000000E+00
  0.00000000E+00  0.00000000E+00  0.00000000E+00
  0.00000000E+00  0.00000000E+00  0.00000000E+00
  0.00000000E+00  0.00000000E+00  0.00000000E+00
  0.00000000E+00  0.00000000E+00  0.00000000E+00
  0.00000000E+00  0.00000000E+00  0.00000000E+00
  0.00000000E+00  0.00000000E+00  0.00000000E+00
  0.00000000E+00  0.00000000E+00  0.00000000E+00
  0.00000000E+00  0.00000000E+00  0.00000000E+00
  0.00000000E+00  0.00000000E+00  0.00000000E+00
  0.00000000E+00  0.00000000E+00  0.00000000E+00
  0.00000000E+00  0.00000000E+00  0.00000000E+00
  0.00000000E+00  0.00000000E+00  0.00000000E+00
  0.00000000E+00  0.00000000E+00  0.00000000E+00
  0.00000000E+00  0.00000000E+00  0.00000000E+00
  0.00000000E+00  0.00000000E+00  0.00000000E+00
  0.00000000E+00  0.00000000E+00  0.00000000E+00
  0.00000000E+00  0.00000000E+00  0.00000000E+00
  0.00000000E+00  0.00000000E+00  0.00000000E+00
  0.00000000E+00  0.00000000E+00  0.00000000E+00
  0.00000000E+00  0.00000000E+00  0.00000000E+00
  0.00000000E+00  0.00000000E+00  0.00000000E+00
  0.00000000E+00  0.00000000E+00  0.00000000E+00
  0.00000000E+00  0.00000000E+00  0.00000000E+00
  0.00000000E+00  0.00000000E+00  0.00000000E+00
  0.00000000E+00  0.00000000E+00  0.00000000E+00
  0.00000000E+00  0.00000000E+00  0.00000000E+00
  0.00000000E+00  0.00000000E+00  0.00000000E+00
  0.00000000E+00  0.00000000E+00  0.00000000E+00
  0.00000000E+00  0.00000000E+00  0.00000000E+00
  0.00000000E+00  0.00000000E+00  0.00000000E+00
  0.00000000E+00  0.00000000E+00  0.00000000E+00
  0.00000000E+00  0.00000000E+00  0.00000000E+00
  0.00000000E+00  0.00000000E+00  0.00000000E+00
  0.00000000E+00  0.00000000E+00  0.00000000E+00
  0.00000000E+00  0.00000000E+00  0.00000000E+00
  0.00000000E+00  0.00000000E+00  0.00000000E+00
  0.00000000E+00  0.00000000E+00  0.00000000E+00
  0.00000000E+00  0.00000000E+00  0.00000000E+00
  0.00000000E+00  0.00000000E+00  0.00000000E+00
  0.00000000E+00  0.00000000E+00  0.00000000E+00
  0.00000000E+00  0.00000000E+00  0.00000000E+00
  0.00000000E+00  0.00000000E+00  0.00000000E+00
  0.00000000E+00  0.00000000E+00  0.00000000E+00
  0.00000000E+00  0.00000000E+00  0.00000000E+00
  0.00000000E+00  0.00000000E+00  0.00000000E+00
  0.00000000E+00  0.00000000E+00  0.00000000E+00
  0.00000000E+00  0.00000000E+00  0.00000000E+00
  0.00000000E+00  0.00000000E+00  0.00000000E+00
  0.00000000E+00  0.00000000E+00  0.00000000E+00
  0.00000000E+00  0.00000000E+00  0.00000000E+00
  0.00000000E+00  0.00000000E+00  0.00000000E+00
  0.00000000E+00  0.00000000E+00  0.00000000E+00
  0.00000000E+00  0.00000000E+00  0.00000000E+00
  0.00000000E+00  0.00000000E+00  0.00000000E+00
  0.00000000E+00  0.00000000E+00  0.00000000E+00
  0.00000000E+00  0.00000000E+00  0.00000000E+00
  0.00000000E+00  0.00000000E+00  0.00000000E+00
  0.00000000E+00  0.00000000E+00  0.00000000E+00
  0.00000000E+00  0.00000000E+00  0.00000000E+00
  0.00000000E+00  0.00000000E+00  0.00000000E+00
  0.00000000E+00  0.00000000E+00  0.00000000E+00
  0.00000000E+00  0.00000000E+00  0.00000000E+00
  0.00000000E+00  0.00000000E+00  0.00000000E+00
  0.00000000E+00  0.00000000E+00  0.00000000E+00
  0.00000000E+00  0.00000000E+00  0.00000000E+00
  0.00000000E+00  0.00000000E+00  0.00000000E+00
  0.00000000E+00  0.00000000E+00  0.00000000E+00
  0.00000000E+00  0.00000000E+00  0.00000000E+00
  0.00000000E+00  0.00000000E+00  0.00000000E+00
  0.00000000E+00  0.00000000E+00  0.00000000E+00
  0.00000000E+00  0.00000000E+00  0.00000000E+00
  0.00000000E+00  0.00000000E+00  0.00000000E+00
  0.00000000E+00  0.00000000E+00  0.00000000E+00
  0.00000000E+00  0.00000000E+00  0.00000000E+00
  0.00000000E+00  0.00000000E+00  0.00000000E+00
  0.00000000E+00  0.00000000E+00  0.00000000E+00
  0.00000000E+00  0.00000000E+00  0.00000000E+00
  0.00000000E+00  0.00000000E+00  0.00000000E+00
  0.00000000E+00  0.00000000E+00  0.00000000E+00
  0.00000000E+00  0.00000000E+00  0.00000000E+00
  0.00000000E+00  0.00000000E+00  0.00000000E+00
  0.00000000E+00  0.00000000E+00  0.00000000E+00
  0.00000000E+00  0.00000000E+00  0.00000000E+00
  0.00000000E+00  0.00000000E+00  0.00000000E+00
  0.00000000E+00  0.00000000E+00  0.00000000E+00
  0.00000000E+00  0.00000000E+00  0.00000000E+00
  0.00000000E+00  0.00000000E+00  0.00000000E+00
  0.00000000E+00  0.00000000E+00  0.00000000E+00
  0.00000000E+00  0.00000000E+00  0.00000000E+00
  0.00000000E+00  0.00000000E+00  0.00000000E+00
  0.00000000E+00  0.00000000E+00  0.00000000E+00
  0.00000000E+00  0.00000000E+00  0.00000000E+00
  0.00000000E+00  0.00000000E+00  0.00000000E+00
