GaN                                     
    1.000000000000000     
     9.6000003814999992    0.0000000000000000    0.0000000000000000
     0.0000000000000000   11.0851259231999997    0.0000000000000000
     0.0000000000000000    0.0000000000000000   10.3800001143999996
   Ga   N    C 
    48    47     1
Selective dynamics
Direct
  0.9999999950214828  0.1666927050526965  0.0004190955844621   T   T   T
  0.0000000171150276  0.1675179149339101  0.5003574545361431   T   T   T
  0.9999999962467783  0.6666572165431930  0.0003167044283785   T   T   T
  0.0000000188572784  0.6668303391222707  0.5007592931763512   T   T   T
  0.3333186944819317  0.1662238423957092  0.0003365237849735   T   T   T
  0.3327029054793016  0.1649156258552509  0.5005051330178105   T   T   T
  0.3329311463022719  0.6667745391209934  0.9988627565013886   T   T   T
  0.3297251439792248  0.6687847273899550  0.4990394135999026   T   T   T
  0.6666813054931993  0.1662238473538693  0.0003365640604045   T   T   T
  0.6672970764412582  0.1649155987466884  0.5005052197015800   T   T   T
  0.6670688421188018  0.6667745403319785  0.9988628423705279   T   T   T
  0.6702748272151169  0.6687846792075121  0.4990396752457471   T   T   T
  0.9999999968543420  0.3335157914436877  0.2507794419164924   T   T   T
  0.0000000074070385  0.3336552193503763  0.7501817885194839   T   T   T
  0.0000000035085819  0.8335320145424916  0.2505908878712333   T   T   T
  0.0000000102520659  0.8335183999574198  0.7505768310074075   T   T   T
  0.3324627734667231  0.3326071474783632  0.2509816725084661   T   T   T
  0.3330501248897306  0.3330740485876689  0.7500062282926976   T   T   T
  0.3330633983484148  0.8344831658257803  0.2510083736210902   T   T   T
  0.3331424268557299  0.8339338087523842  0.7502247301299292   T   T   T
  0.6675372305800238  0.3326071438004590  0.2509817878155616   T   T   T
  0.6669498642819534  0.3330740507796577  0.7500062616079433   T   T   T
  0.6669365953110358  0.8344831591149031  0.2510085532928557   T   T   T
  0.6668575729384045  0.8339338268807666  0.7502248021797229   T   T   T
  0.1664174065743751  0.0834792827459694  0.2504243778280397   T   T   T
  0.1663801389354091  0.0835812999408603  0.7505845388178187   T   T   T
  0.1657896882707774  0.5832046139693716  0.2510095199030076   T   T   T
  0.1664726184262548  0.5833594528153370  0.7502653008276639   T   T   T
  0.4999999977247569  0.0833534628897183  0.2506816427146958   T   T   T
  0.4999999855849069  0.0832902690892610  0.7503436785820767   T   T   T
  0.4999999336757526  0.5832043459152203  0.2417665894469749   T   T   T
  0.5000000010844232  0.5834809610644243  0.7482486017090935   T   T   T
  0.8335825855260026  0.0834792838484901  0.2504244805006550   T   T   T
  0.8336198663881760  0.0835813070761873  0.7505845854767230   T   T   T
  0.8342103004689179  0.5832046110869840  0.2510096689775736   T   T   T
  0.8335274139021038  0.5833594527185895  0.7502653758590228   T   T   T
  0.1666052085327365  0.4164070824452821  0.0004642551027700   T   T   T
  0.1671654507477527  0.4167940031170403  0.5001180972860340   T   T   T
  0.1664321515818159  0.9166737576221493  0.0003750820941164   T   T   T
  0.1654617927489355  0.9176579216310898  0.5006095913400443   T   T   T
  0.5000000017545219  0.4159239299366959  0.9987719712172165   T   T   T
  0.5000000024543922  0.4122732939882496  0.4985788644478291   T   T   T
  0.5000000070382313  0.9166000521048900  0.0004988875552030   T   T   T
  0.4999999772312407  0.9160151464337432  0.5002601835268834   T   T   T
  0.8333947836123983  0.4164070830535991  0.0004643069182464   T   T   T
  0.8328345750893220  0.4167939847666560  0.5001181864490292   T   T   T
  0.8335678410411447  0.9166737607575897  0.0003751499214886   T   T   T
  0.8345382267668526  0.9176579096396722  0.5006096948838064   T   T   T
  0.9999999871893479  0.1671014046452584  0.1891752691933846   T   T   T
  0.0000000021532358  0.1671415475696065  0.6893785830375947   T   T   T
  0.9999999720366262  0.6670540921764712  0.1888877967115903   T   T   T
  0.0000000093761159  0.6669740772171053  0.6897578498311390   T   T   T
  0.3333620591885662  0.1664605200475791  0.1890450831515906   T   T   T
  0.3332077770329107  0.1663681058232527  0.6894968179285854   T   T   T
  0.3327441567992793  0.6672323642367246  0.1893112248660103   T   T   T
  0.3324123592769439  0.6674650153596247  0.6898355180792279   T   T   T
  0.6666379520495553  0.1664605331549112  0.1890451396406334   T   T   T
  0.6667922187883448  0.1663680975273252  0.6894968938776458   T   T   T
  0.6672557977488580  0.6672323493959098  0.1893114030964043   T   T   T
  0.6675876743415259  0.6674650277414713  0.6898357599829197   T   T   T
  0.0000000009299796  0.3337754875170802  0.4393780169967840   T   T   T
  0.9999999912789974  0.3332807638720041  0.9391816849950416   T   T   T
  0.9999999975470644  0.8332811086511640  0.4393387095200367   T   T   T
  0.9999999905302985  0.8331333898129358  0.9393142928045890   T   T   T
  0.3316834266522406  0.3301036167846547  0.4391231623498015   T   T   T
  0.3331227281375178  0.3329102827475694  0.9392037726914282   T   T   T
  0.3313499086112657  0.8360186798751812  0.4391780315099254   T   T   T
  0.3332752848899787  0.8333920853211865  0.9393607418339158   T   T   T
  0.6683165894132728  0.3301035949872855  0.4391233313517304   T   T   T
  0.6668772779316896  0.3329102819631515  0.9392038172093464   T   T   T
  0.6686500898796055  0.8360186485862542  0.4391782787799272   T   T   T
  0.6667247217203069  0.8333920840659346  0.9393608146916108   T   T   T
  0.1667553956567005  0.4168607465448630  0.1892867530258258   T   T   T
  0.1667531565359326  0.4168686547998206  0.6892333530888735   T   T   T
  0.1664301083136834  0.9168990127696404  0.1890227141483578   T   T   T
  0.1663263920534206  0.9171312347777842  0.6895884430285051   T   T   T
  0.5000000124085489  0.4158693958254034  0.1892023726507119   T   T   T
  0.4999999934311248  0.4158554861716866  0.6894818512574972   T   T   T
  0.5000000252497898  0.9167019793056639  0.1892691093988574   T   T   T
  0.4999999957030923  0.9167393525943197  0.6893109248473550   T   T   T
  0.8332445866011753  0.4168607550093171  0.1892868195825486   T   T   T
  0.8332468470444425  0.4168686536204049  0.6892334202244186   T   T   T
  0.8335698629689219  0.9168990105159907  0.1890228113055343   T   T   T
  0.8336736180750677  0.9171312403088976  0.6895885482134645   T   T   T
  0.1655405614553445  0.0834327341301133  0.4390749139598569   T   T   T
  0.1665205189729093  0.0832315264800343  0.9393634810179847   T   T   T
  0.1642074851526942  0.5833171923249552  0.4390893291405220   T   T   T
  0.1665444974330583  0.5829990420322062  0.9393818740228568   T   T   T
  0.5000000007140173  0.0826540836136900  0.4393899277081701   T   T   T
  0.5000000029775222  0.0830380751872184  0.9392274187358467   T   T   T
  0.5000000035350993  0.5830709981041693  0.9388718876521622   T   T   T
  0.8344594338368694  0.0834327222073341  0.4390750644561052   T   T   T
  0.8334794743245695  0.0832315221301911  0.9393635323598559   T   T   T
  0.8357925027357282  0.5833171887042923  0.4390895332494509   T   T   T
  0.8334554944979828  0.5829990378284222  0.9393819513795805   T   T   T
  0.5000000457493812  0.5832257440366035  0.4470337206090136   T   T   T
 
  0.00000000E+00  0.00000000E+00  0.00000000E+00
  0.00000000E+00  0.00000000E+00  0.00000000E+00
  0.00000000E+00  0.00000000E+00  0.00000000E+00
  0.00000000E+00  0.00000000E+00  0.00000000E+00
  0.00000000E+00  0.00000000E+00  0.00000000E+00
  0.00000000E+00  0.00000000E+00  0.00000000E+00
  0.00000000E+00  0.00000000E+00  0.00000000E+00
  0.00000000E+00  0.00000000E+00  0.00000000E+00
  0.00000000E+00  0.00000000E+00  0.00000000E+00
  0.00000000E+00  0.00000000E+00  0.00000000E+00
  0.00000000E+00  0.00000000E+00  0.00000000E+00
  0.00000000E+00  0.00000000E+00  0.00000000E+00
  0.00000000E+00  0.00000000E+00  0.00000000E+00
  0.00000000E+00  0.00000000E+00  0.00000000E+00
  0.00000000E+00  0.00000000E+00  0.00000000E+00
  0.00000000E+00  0.00000000E+00  0.00000000E+00
  0.00000000E+00  0.00000000E+00  0.00000000E+00
  0.00000000E+00  0.00000000E+00  0.00000000E+00
  0.00000000E+00  0.00000000E+00  0.00000000E+00
  0.00000000E+00  0.00000000E+00  0.00000000E+00
  0.00000000E+00  0.00000000E+00  0.00000000E+00
  0.00000000E+00  0.00000000E+00  0.00000000E+00
  0.00000000E+00  0.00000000E+00  0.00000000E+00
  0.00000000E+00  0.00000000E+00  0.00000000E+00
  0.00000000E+00  0.00000000E+00  0.00000000E+00
  0.00000000E+00  0.00000000E+00  0.00000000E+00
  0.00000000E+00  0.00000000E+00  0.00000000E+00
  0.00000000E+00  0.00000000E+00  0.00000000E+00
  0.00000000E+00  0.00000000E+00  0.00000000E+00
  0.00000000E+00  0.00000000E+00  0.00000000E+00
  0.00000000E+00  0.00000000E+00  0.00000000E+00
  0.00000000E+00  0.00000000E+00  0.00000000E+00
  0.00000000E+00  0.00000000E+00  0.00000000E+00
  0.00000000E+00  0.00000000E+00  0.00000000E+00
  0.00000000E+00  0.00000000E+00  0.00000000E+00
  0.00000000E+00  0.00000000E+00  0.00000000E+00
  0.00000000E+00  0.00000000E+00  0.00000000E+00
  0.00000000E+00  0.00000000E+00  0.00000000E+00
  0.00000000E+00  0.00000000E+00  0.00000000E+00
  0.00000000E+00  0.00000000E+00  0.00000000E+00
  0.00000000E+00  0.00000000E+00  0.00000000E+00
  0.00000000E+00  0.00000000E+00  0.00000000E+00
  0.00000000E+00  0.00000000E+00  0.00000000E+00
  0.00000000E+00  0.00000000E+00  0.00000000E+00
  0.00000000E+00  0.00000000E+00  0.00000000E+00
  0.00000000E+00  0.00000000E+00  0.00000000E+00
  0.00000000E+00  0.00000000E+00  0.00000000E+00
  0.00000000E+00  0.00000000E+00  0.00000000E+00
  0.00000000E+00  0.00000000E+00  0.00000000E+00
  0.00000000E+00  0.00000000E+00  0.00000000E+00
  0.00000000E+00  0.00000000E+00  0.00000000E+00
  0.00000000E+00  0.00000000E+00  0.00000000E+00
  0.00000000E+00  0.00000000E+00  0.00000000E+00
  0.00000000E+00  0.00000000E+00  0.00000000E+00
  0.00000000E+00  0.00000000E+00  0.00000000E+00
  0.00000000E+00  0.00000000E+00  0.00000000E+00
  0.00000000E+00  0.00000000E+00  0.00000000E+00
  0.00000000E+00  0.00000000E+00  0.00000000E+00
  0.00000000E+00  0.00000000E+00  0.00000000E+00
  0.00000000E+00  0.00000000E+00  0.00000000E+00
  0.00000000E+00  0.00000000E+00  0.00000000E+00
  0.00000000E+00  0.00000000E+00  0.00000000E+00
  0.00000000E+00  0.00000000E+00  0.00000000E+00
  0.00000000E+00  0.00000000E+00  0.00000000E+00
  0.00000000E+00  0.00000000E+00  0.00000000E+00
  0.00000000E+00  0.00000000E+00  0.00000000E+00
  0.00000000E+00  0.00000000E+00  0.00000000E+00
  0.00000000E+00  0.00000000E+00  0.00000000E+00
  0.00000000E+00  0.00000000E+00  0.00000000E+00
  0.00000000E+00  0.00000000E+00  0.00000000E+00
  0.00000000E+00  0.00000000E+00  0.00000000E+00
  0.00000000E+00  0.00000000E+00  0.00000000E+00
  0.00000000E+00  0.00000000E+00  0.00000000E+00
  0.00000000E+00  0.00000000E+00  0.00000000E+00
  0.00000000E+00  0.00000000E+00  0.00000000E+00
  0.00000000E+00  0.00000000E+00  0.00000000E+00
  0.00000000E+00  0.00000000E+00  0.00000000E+00
  0.00000000E+00  0.00000000E+00  0.00000000E+00
  0.00000000E+00  0.00000000E+00  0.00000000E+00
  0.00000000E+00  0.00000000E+00  0.00000000E+00
  0.00000000E+00  0.00000000E+00  0.00000000E+00
  0.00000000E+00  0.00000000E+00  0.00000000E+00
  0.00000000E+00  0.00000000E+00  0.00000000E+00
  0.00000000E+00  0.00000000E+00  0.00000000E+00
  0.00000000E+00  0.00000000E+00  0.00000000E+00
  0.00000000E+00  0.00000000E+00  0.00000000E+00
  0.00000000E+00  0.00000000E+00  0.00000000E+00
  0.00000000E+00  0.00000000E+00  0.00000000E+00
  0.00000000E+00  0.00000000E+00  0.00000000E+00
  0.00000000E+00  0.00000000E+00  0.00000000E+00
  0.00000000E+00  0.00000000E+00  0.00000000E+00
  0.00000000E+00  0.00000000E+00  0.00000000E+00
  0.00000000E+00  0.00000000E+00  0.00000000E+00
  0.00000000E+00  0.00000000E+00  0.00000000E+00
  0.00000000E+00  0.00000000E+00  0.00000000E+00
  0.00000000E+00  0.00000000E+00  0.00000000E+00
